N = 8;
H = 6;
T = 2;

avail = array3d(1..N, 1..H, 1..T, [3, 0, 4, 9, 3, 2, 10, 10, 7, 3, 0, 2, 8, 9, 7, 4, 7, 0, 1, 3, 10, 2, 4, 3, 0, 9, 0, 1, 10, 1, 2, 5, 0, 4, 7, 3, 2, 2, 3, 8, 7, 7, 5, 4, 3, 0, 10, 5, 4, 5, 10, 7, 1, 1, 7, 3, 7, 8, 6, 7, 8, 10, 4, 1, 8, 3, 1, 1, 8, 4, 0, 10, 4, 9, 6, 0, 4, 8, 3, 5, 8, 3, 10, 10, 6, 8, 9, 8, 1, 7, 10, 10, 4, 9, 2, 3]);

r = array2d(1..H, 1..T, [0, 1, 3, 1, 2, 2, 2, 2, 4, 2, 0, 3]);
